
Gurobi 9.5.0 (linux64) logging started Fri Dec  8 09:10:14 2023

Set parameter LogFile to value "/lustre1/scratch/348/vsc34888/JointResearch/05.Models/06.Benchmarking/F.Representative_days_based_on_Line_Benefit_NN_OC_fy_1/RTS24_mod1_ByStages_nc20/openStarNet_RTS24_mod1_ByStages_nc20.log"
Set parameter Method to value 2
Set parameter MIPFocus to value 1
Set parameter Presolve to value 2
Set parameter RINS to value 100
Set parameter MIPGap to value 0.01
Set parameter Threads to value 36
Set parameter TimeLimit to value 259200
Set parameter IterationLimit to value 760000000
Gurobi Optimizer version 9.5.0 build v9.5.0rc5 (linux64)
Thread count: 36 physical cores, 36 logical processors, using up to 36 threads
Optimize a model with 7458 rows, 5052 columns and 20317 nonzeros
Model fingerprint: 0x88d80f66
Variable types: 5031 continuous, 21 integer (21 binary)
Coefficient statistics:
  Matrix range     [4e-03, 2e+03]
  Objective range  [1e+00, 1e+00]
  Bounds range     [3e-05, 2e+00]
  RHS range        [3e-05, 2e+00]
Presolve removed 4443 rows and 2553 columns
Presolve time: 0.03s
Presolved: 3015 rows, 2499 columns, 10889 nonzeros
Variable types: 2478 continuous, 21 integer (21 binary)
Found heuristic solution: objective 96.8401598
Root relaxation presolve removed 5 rows and 5 columns
Root relaxation presolved: 3010 rows, 2494 columns, 10879 nonzeros

Root barrier log...

Ordering time: 0.05s

Barrier statistics:
 AA' NZ     : 8.901e+04
 Factor NZ  : 4.100e+05 (roughly 6 MB of memory)
 Factor Ops : 8.857e+07 (less than 1 second per iteration)
 Threads    : 36

                  Objective                Residual
Iter       Primal          Dual         Primal    Dual     Compl     Time
   0   8.55618546e+05 -4.39270722e+07  6.95e+00 6.38e+02  2.11e+04     0s
   1   1.35449614e+05 -1.35925878e+07  1.09e+00 3.14e-10  3.37e+03     0s
   2   2.94590256e+04 -1.01170711e+07  2.10e-01 6.82e-11  1.67e+03     0s
   3   8.93126910e+03 -7.52678157e+05  7.16e-03 1.45e-10  1.10e+02     0s
   4   5.16377794e+03 -4.07750827e+04  1.13e-05 1.58e-11  6.51e+00     0s
   5   1.10216125e+03 -7.00395349e+03  7.81e-07 3.64e-12  1.15e+00     0s
   6   3.24924788e+02 -1.80724745e+03  4.85e-09 3.64e-12  3.02e-01     0s
   7   2.23969960e+02 -5.74623655e+02  2.86e-09 1.82e-12  1.13e-01     0s
   8   1.71457059e+02 -1.54054880e+02  1.93e-09 1.82e-12  4.62e-02     0s
   9   9.87024697e+01 -4.52082198e+01  8.64e-10 1.82e-12  2.04e-02     0s
  10   6.48122252e+01  1.18792583e+01  4.06e-10 1.82e-12  7.51e-03     0s
  11   4.21239667e+01  2.70757231e+01  1.07e-10 3.64e-12  2.13e-03     0s
  12   3.68157498e+01  3.18945693e+01  4.07e-11 1.82e-12  6.98e-04     0s
  13   3.53117608e+01  3.23748093e+01  2.23e-11 3.64e-12  4.16e-04     0s
  14   3.44204561e+01  3.31415252e+01  1.27e-11 1.82e-12  1.81e-04     0s
  15   3.38255148e+01  3.33407466e+01  6.46e-12 1.82e-12  6.87e-05     0s
  16   3.36269576e+01  3.34335781e+01  9.20e-12 1.82e-12  2.74e-05     0s
  17   3.35475644e+01  3.35037244e+01  1.01e-11 1.82e-12  6.22e-06     0s
  18   3.35326052e+01  3.35150915e+01  2.51e-11 1.82e-12  2.48e-06     0s
  19   3.35229733e+01  3.35162763e+01  1.16e-10 1.82e-12  9.50e-07     0s
  20   3.35173972e+01  3.35166909e+01  1.60e-10 1.82e-12  1.00e-07     0s
  21   3.35169364e+01  3.35169100e+01  1.32e-10 1.82e-12  3.73e-09     0s
  22   3.35169344e+01  3.35169344e+01  9.00e-11 1.82e-12  1.36e-12     0s

Barrier solved model in 22 iterations and 0.46 seconds (0.14 work units)
Optimal objective 3.35169344e+01


Root relaxation: objective 3.351693e+01, 367 iterations, 0.41 seconds (0.09 work units)

    Nodes    |    Current Node    |     Objective Bounds      |     Work
 Expl Unexpl |  Obj  Depth IntInf | Incumbent    BestBd   Gap | It/Node Time

     0     0   33.51693    0   13   96.84016   33.51693  65.4%     -    0s
H    0     0                      79.3807122   34.60860  56.4%     -    0s
     0     0   34.60860    0   11   79.38071   34.60860  56.4%     -    0s
H    0     0                      73.2941801   34.62511  52.8%     -    0s
     0     0   35.78336    0   11   73.29418   35.78336  51.2%     -    0s
     0     0   36.07224    0    8   73.29418   36.07224  50.8%     -    0s
     0     0   36.07224    0    8   73.29418   36.07224  50.8%     -    0s
     0     0   36.83986    0    9   73.29418   36.83986  49.7%     -    0s
H    0     0                      67.0252690   37.12163  44.6%     -    0s
     0     0   37.23093    0    9   67.02527   37.23093  44.5%     -    0s
H    0     0                      56.2931016   37.23093  33.9%     -    1s
     0     2   37.23093    0    9   56.29310   37.23093  33.9%     -    1s
H  103   127                      55.8260693   39.88659  28.6%   108    2s
H  110   127                      55.5851418   39.88659  28.2%   108    2s
H  125   127                      54.5585135   39.88659  26.9%   110    2s
   400   185   49.61513   10   11   54.55851   39.88659  26.9%  84.6    7s

Cutting planes:
  Gomory: 3
  MIR: 102
  Relax-and-lift: 20

Explored 2642 nodes (156667 simplex iterations) in 8.22 seconds (8.91 work units)
Thread count was 36 (of 36 available processors)

Solution count 8: 54.5585 55.5851 55.8261 ... 96.8402

Optimal solution found (tolerance 1.00e-02)
Best objective 5.455851353993e+01, best bound 5.455851353993e+01, gap 0.0000%

Gurobi 9.5.0 (linux64) logging started Fri Dec  8 09:10:23 2023

Set parameter LogFile to value "/lustre1/scratch/348/vsc34888/JointResearch/05.Models/06.Benchmarking/F.Representative_days_based_on_Line_Benefit_NN_OC_fy_1/RTS24_mod1_ByStages_nc20/openStarNet_RTS24_mod1_ByStages_nc20.log"
Set parameter Method to value 2
Set parameter MIPFocus to value 1
Set parameter Presolve to value 2
Set parameter RINS to value 100
Set parameter MIPGap to value 0.01
Set parameter Threads to value 36
Set parameter TimeLimit to value 259200
Set parameter IterationLimit to value 760000000
No parameters matching 'relax_integrality' found
Gurobi Optimizer version 9.5.0 build v9.5.0rc5 (linux64)
Thread count: 36 physical cores, 36 logical processors, using up to 36 threads
Optimize a model with 7458 rows, 5031 columns and 18532 nonzeros
Model fingerprint: 0x40f3086f
Coefficient statistics:
  Matrix range     [4e-03, 2e+03]
  Objective range  [1e+00, 1e+00]
  Bounds range     [3e-05, 2e+00]
  RHS range        [3e-05, 3e+01]
Presolve removed 6219 rows and 2810 columns
Presolve time: 0.01s
Presolved: 1239 rows, 2242 columns, 5627 nonzeros

Ordering time: 0.00s

Barrier statistics:
 AA' NZ     : 3.546e+03
 Factor NZ  : 1.109e+04 (roughly 1 MB of memory)
 Factor Ops : 1.470e+05 (less than 1 second per iteration)
 Threads    : 1

                  Objective                Residual
Iter       Primal          Dual         Primal    Dual     Compl     Time
   0   1.55848753e+06 -1.50221751e+07  5.33e+00 2.64e+03  2.33e+04     0s
   1   1.63166068e+05 -8.43133864e+06  5.99e-01 2.18e-11  3.75e+03     0s
   2   5.83362755e+04 -2.93514234e+06  2.35e-01 2.35e-11  1.10e+03     0s
   3   2.11470347e+04 -6.37201397e+05  1.82e-02 3.64e-11  1.80e+02     0s
   4   8.92478992e+03 -6.36135845e+04  2.07e-12 2.91e-11  1.85e+01     0s
   5   1.96447180e+03 -8.53745616e+03  1.77e-12 1.46e-11  2.68e+00     0s
   6   4.20606559e+02 -2.95691522e+03  3.12e-13 1.46e-11  8.63e-01     0s
   7   2.54659058e+02 -6.50871651e+02  1.46e-13 1.46e-11  2.31e-01     0s
   8   1.40133926e+02 -8.77104183e+01  9.90e-14 7.28e-12  5.82e-02     0s
   9   7.51738705e+01  5.30613079e+00  1.19e-13 1.46e-11  1.79e-02     0s
  10   6.21307514e+01  3.93322573e+01  5.02e-14 1.46e-11  5.83e-03     0s
  11   5.55608082e+01  4.98527261e+01  7.46e-14 1.46e-11  1.46e-03     0s
  12   5.48248843e+01  5.31950165e+01  1.18e-12 7.28e-12  4.17e-04     0s
  13   5.46102250e+01  5.44050123e+01  3.60e-13 1.46e-11  5.25e-05     0s
  14   5.45624698e+01  5.45496361e+01  2.45e-12 1.46e-11  3.28e-06     0s
  15   5.45586127e+01  5.45583170e+01  6.05e-12 2.91e-11  7.56e-08     0s
  16   5.45585140e+01  5.45585119e+01  1.36e-12 1.46e-11  5.48e-10     0s
  17   5.45585135e+01  5.45585135e+01  2.63e-12 1.46e-11  1.19e-14     0s

Barrier solved model in 17 iterations and 0.03 seconds (0.02 work units)
Optimal objective 5.45585135e+01

Crossover log...

     278 DPushes remaining with DInf 0.0000000e+00                 0s
       0 DPushes remaining with DInf 0.0000000e+00                 0s

      74 PPushes remaining with PInf 0.0000000e+00                 0s
       0 PPushes remaining with PInf 0.0000000e+00                 0s

  Push phase complete: Pinf 0.0000000e+00, Dinf 5.4570310e-13      0s

Iteration    Objective       Primal Inf.    Dual Inf.      Time
      79    5.4558514e+01   0.000000e+00   0.000000e+00      0s

Use crossover to convert LP symmetric solution to basic solution...
Crossover log...

       0 DPushes remaining with DInf 0.0000000e+00                 0s

      69 PPushes remaining with PInf 0.0000000e+00                 0s
       0 PPushes remaining with PInf 0.0000000e+00                 0s

  Push phase complete: Pinf 0.0000000e+00, Dinf 6.1014323e-13      0s

Iteration    Objective       Primal Inf.    Dual Inf.      Time
     153    5.4558514e+01   0.000000e+00   0.000000e+00      0s

Solved in 153 iterations and 0.04 seconds (0.03 work units)
Optimal objective  5.455851354e+01

Gurobi 9.5.0 (linux64) logging started Fri Dec  8 11:37:18 2023

Set parameter LogFile to value "/lustre1/scratch/348/vsc34888/JointResearch/05.Models/06.Benchmarking/F.Representative_days_based_on_Line_Benefit_NN_OC_fy_1/RTS24_mod1_ByStages_nc20/openStarNet_RTS24_mod1_ByStages_nc20.log"
Set parameter Method to value 2
Set parameter MIPFocus to value 1
Set parameter Presolve to value 2
Set parameter RINS to value 100
Set parameter MIPGap to value 0.01
Set parameter Threads to value 36
Set parameter TimeLimit to value 259200
Set parameter IterationLimit to value 760000000
Gurobi Optimizer version 9.5.0 build v9.5.0rc5 (linux64)
Thread count: 36 physical cores, 36 logical processors, using up to 36 threads
Optimize a model with 7458 rows, 5051 columns and 20314 nonzeros
Model fingerprint: 0xe5c98364
Variable types: 5030 continuous, 21 integer (21 binary)
Coefficient statistics:
  Matrix range     [4e-03, 2e+03]
  Objective range  [1e+00, 1e+00]
  Bounds range     [4e-05, 2e+00]
  RHS range        [4e-05, 2e+00]
Presolve removed 4443 rows and 2552 columns
Presolve time: 0.03s
Presolved: 3015 rows, 2499 columns, 10889 nonzeros
Variable types: 2478 continuous, 21 integer (21 binary)
Found heuristic solution: objective 66.4681537
Root relaxation presolve removed 5 rows and 5 columns
Root relaxation presolved: 3010 rows, 2494 columns, 10879 nonzeros

Root barrier log...

Ordering time: 0.04s

Barrier statistics:
 AA' NZ     : 8.901e+04
 Factor NZ  : 4.286e+05 (roughly 6 MB of memory)
 Factor Ops : 9.501e+07 (less than 1 second per iteration)
 Threads    : 36

                  Objective                Residual
Iter       Primal          Dual         Primal    Dual     Compl     Time
   0   1.64141611e+06 -5.05136534e+07  1.34e+01 4.53e+02  3.92e+04     0s
   1   4.23012408e+05 -2.05053661e+07  3.45e+00 2.72e-10  8.92e+03     0s
   2   4.34014005e+04 -1.40122818e+07  3.83e-01 3.22e-10  2.54e+03     0s
   3   1.06690298e+04 -1.89058860e+06  4.02e-02 1.33e-10  2.90e+02     0s
   4   6.22815379e+03 -6.51681498e+04  7.52e-04 2.78e-11  1.02e+01     0s
   5   2.00515514e+03 -7.16938768e+03  6.48e-05 2.03e-10  1.30e+00     0s
   6   4.84957392e+02 -2.54558974e+03  5.32e-06 7.48e-11  4.30e-01     0s
   7   2.54764111e+02 -8.49541155e+02  1.76e-06 2.39e-11  1.57e-01     0s
   8   9.71183264e+01 -1.52350065e+02  2.34e-07 3.76e-12  3.54e-02     0s
   9   6.24725055e+01 -6.03181459e+01  9.22e-08 3.64e-12  1.74e-02     0s
  10   4.43415066e+01  3.12910655e+00  3.75e-08 3.64e-12  5.84e-03     0s
  11   3.65628043e+01  1.92550781e+01  1.65e-08 3.64e-12  2.45e-03     0s
  12   3.19922264e+01  2.76528050e+01  4.89e-09 2.73e-12  6.15e-04     0s
  13   3.11321136e+01  2.87634094e+01  2.89e-09 1.82e-12  3.36e-04     0s
  14   3.06431952e+01  2.94764208e+01  1.58e-09 3.64e-12  1.65e-04     0s
  15   3.02797903e+01  2.97205612e+01  5.91e-10 3.64e-12  7.93e-05     0s
  16   3.01631082e+01  2.98914259e+01  3.04e-10 9.09e-13  3.85e-05     0s
  17   3.00725474e+01  3.00282438e+01  8.23e-11 1.82e-12  6.28e-06     0s
  18   3.00421455e+01  3.00354930e+01  6.24e-11 3.64e-12  9.43e-07     0s
  19   3.00369354e+01  3.00359896e+01  6.57e-10 1.82e-12  1.34e-07     0s
  20   3.00363043e+01  3.00362672e+01  4.71e-10 1.82e-12  5.26e-09     0s
  21   3.00363023e+01  3.00363023e+01  1.02e-10 3.64e-12  1.40e-12     0s

Barrier solved model in 21 iterations and 0.41 seconds (0.14 work units)
Optimal objective 3.00363023e+01


Root relaxation: objective 3.003630e+01, 414 iterations, 0.37 seconds (0.09 work units)

    Nodes    |    Current Node    |     Objective Bounds      |     Work
 Expl Unexpl |  Obj  Depth IntInf | Incumbent    BestBd   Gap | It/Node Time

     0     0   30.03630    0   13   66.46815   30.03630  54.8%     -    0s
H    0     0                      57.6488989   30.21518  47.6%     -    0s
     0     0   30.21518    0    9   57.64890   30.21518  47.6%     -    0s
H    0     0                      51.8066877   30.21518  41.7%     -    0s
     0     0   30.21518    0    9   51.80669   30.21518  41.7%     -    0s
     0     0   30.69538    0    9   51.80669   30.69538  40.8%     -    0s
     0     0   30.69538    0    8   51.80669   30.69538  40.8%     -    0s
H    0     0                      51.3211817   30.69538  40.2%     -    0s
     0     0   31.05469    0    8   51.32118   31.05469  39.5%     -    0s
     0     0   32.10565    0    8   51.32118   32.10565  37.4%     -    0s
     0     0   32.54812    0    8   51.32118   32.54812  36.6%     -    0s
     0     0   32.56618    0    8   51.32118   32.56618  36.5%     -    0s
H    0     0                      46.1646809   32.56618  29.5%     -    1s
     0     2   32.56618    0    8   46.16468   32.56618  29.5%     -    1s
H   99   112                      45.9365332   32.83993  28.5%   117    2s

Cutting planes:
  Gomory: 1
  Implied bound: 3
  MIR: 86
  Relax-and-lift: 23

Explored 1662 nodes (88579 simplex iterations) in 4.58 seconds (4.77 work units)
Thread count was 36 (of 36 available processors)

Solution count 6: 45.9365 46.1647 51.3212 ... 66.4682

Optimal solution found (tolerance 1.00e-02)
Best objective 4.593653315097e+01, best bound 4.593653315097e+01, gap 0.0000%

Gurobi 9.5.0 (linux64) logging started Fri Dec  8 11:37:24 2023

Set parameter LogFile to value "/lustre1/scratch/348/vsc34888/JointResearch/05.Models/06.Benchmarking/F.Representative_days_based_on_Line_Benefit_NN_OC_fy_1/RTS24_mod1_ByStages_nc20/openStarNet_RTS24_mod1_ByStages_nc20.log"
Set parameter Method to value 2
Set parameter MIPFocus to value 1
Set parameter Presolve to value 2
Set parameter RINS to value 100
Set parameter MIPGap to value 0.01
Set parameter Threads to value 36
Set parameter TimeLimit to value 259200
Set parameter IterationLimit to value 760000000
No parameters matching 'relax_integrality' found
Gurobi Optimizer version 9.5.0 build v9.5.0rc5 (linux64)
Thread count: 36 physical cores, 36 logical processors, using up to 36 threads
Optimize a model with 7458 rows, 5030 columns and 18529 nonzeros
Model fingerprint: 0xcf69dc20
Coefficient statistics:
  Matrix range     [4e-03, 2e+03]
  Objective range  [1e+00, 1e+00]
  Bounds range     [4e-05, 2e+00]
  RHS range        [4e-05, 2e+01]
Presolve removed 6257 rows and 2848 columns
Presolve time: 0.01s
Presolved: 1201 rows, 2204 columns, 5367 nonzeros

Ordering time: 0.00s

Barrier statistics:
 AA' NZ     : 2.932e+03
 Factor NZ  : 1.075e+04 (roughly 1 MB of memory)
 Factor Ops : 1.464e+05 (less than 1 second per iteration)
 Threads    : 1

                  Objective                Residual
Iter       Primal          Dual         Primal    Dual     Compl     Time
   0   1.63339196e+06 -2.54722131e+07  9.10e+00 1.57e+03  6.88e+04     0s
   1   1.24132438e+05 -1.78288953e+07  6.30e-01 4.05e-11  8.31e+03     0s
   2   4.48868151e+04 -5.38416642e+06  1.60e-01 3.83e-11  1.90e+03     0s
   3   2.35969743e+04 -8.74929532e+05  1.74e-02 4.04e-11  2.57e+02     0s
   4   1.28886833e+04 -8.93817349e+04  3.45e-04 5.66e-11  2.74e+01     0s
   5   2.46278570e+03 -2.13628007e+04  1.51e-05 1.27e-11  6.38e+00     0s
   6   6.43123025e+02 -2.37297809e+03  5.92e-07 3.64e-12  8.07e-01     0s
   7   2.84599702e+02 -7.00299939e+02  3.56e-08 1.46e-11  2.64e-01     0s
   8   1.13863116e+02 -1.75942308e+02  2.74e-09 3.64e-12  7.76e-02     0s
   9   7.47191318e+01 -2.31109945e+01  8.94e-10 7.28e-12  2.62e-02     0s
  10   5.43458796e+01  2.60274427e+01  1.99e-10 7.28e-12  7.58e-03     0s
  11   4.89957613e+01  3.93826953e+01  6.53e-11 7.28e-12  2.57e-03     0s
  12   4.69317465e+01  4.38661459e+01  1.95e-11 7.28e-12  8.21e-04     0s
  13   4.60679269e+01  4.55953468e+01  4.54e-11 3.64e-12  1.26e-04     0s
  14   4.59493352e+01  4.59041436e+01  3.44e-11 3.64e-12  1.21e-05     0s
  15   4.59368176e+01  4.59351084e+01  5.11e-11 7.28e-12  4.57e-07     0s
  16   4.59365368e+01  4.59365224e+01  1.60e-11 7.28e-12  3.85e-09     0s
  17   4.59365332e+01  4.59365332e+01  1.42e-11 3.64e-12  3.81e-14     0s

Barrier solved model in 17 iterations and 0.03 seconds (0.02 work units)
Optimal objective 4.59365332e+01

Crossover log...

     270 DPushes remaining with DInf 0.0000000e+00                 0s
       0 DPushes remaining with DInf 0.0000000e+00                 0s

      79 PPushes remaining with PInf 0.0000000e+00                 0s
       0 PPushes remaining with PInf 0.0000000e+00                 0s

  Push phase complete: Pinf 0.0000000e+00, Dinf 2.7592953e-13      0s

Iteration    Objective       Primal Inf.    Dual Inf.      Time
      83    4.5936533e+01   0.000000e+00   0.000000e+00      0s

Use crossover to convert LP symmetric solution to basic solution...
Crossover log...

      71 PPushes remaining with PInf 0.0000000e+00                 0s
       0 PPushes remaining with PInf 0.0000000e+00                 0s

  Push phase complete: Pinf 0.0000000e+00, Dinf 3.5126684e-13      0s

Iteration    Objective       Primal Inf.    Dual Inf.      Time
     157    4.5936533e+01   0.000000e+00   0.000000e+00      0s

Solved in 157 iterations and 0.04 seconds (0.03 work units)
Optimal objective  4.593653315e+01

Gurobi 9.5.0 (linux64) logging started Fri Dec  8 15:19:38 2023

Set parameter LogFile to value "/lustre1/scratch/348/vsc34888/JointResearch/05.Models/06.Benchmarking/F.Representative_days_based_on_Line_Benefit_NN_OC_fy_1/RTS24_mod1_ByStages_nc20/openStarNet_RTS24_mod1_ByStages_nc20.log"
Set parameter Method to value 2
Set parameter MIPFocus to value 1
Set parameter Presolve to value 2
Set parameter RINS to value 100
Set parameter MIPGap to value 0.01
Set parameter Threads to value 36
Set parameter TimeLimit to value 259200
Set parameter IterationLimit to value 760000000
Gurobi Optimizer version 9.5.0 build v9.5.0rc5 (linux64)
Thread count: 36 physical cores, 36 logical processors, using up to 36 threads
Optimize a model with 7458 rows, 5059 columns and 20341 nonzeros
Model fingerprint: 0x7b9bbefd
Variable types: 5038 continuous, 21 integer (21 binary)
Coefficient statistics:
  Matrix range     [8e-03, 2e+03]
  Objective range  [1e+00, 1e+00]
  Bounds range     [6e-05, 3e+00]
  RHS range        [6e-05, 3e+00]
Presolve removed 4443 rows and 2559 columns
Presolve time: 0.03s
Presolved: 3015 rows, 2500 columns, 10891 nonzeros
Variable types: 2479 continuous, 21 integer (21 binary)
Found heuristic solution: objective 69.3636812
Root relaxation presolve removed 4 rows and 4 columns
Root relaxation presolved: 3011 rows, 2496 columns, 10883 nonzeros

Root barrier log...

Ordering time: 0.04s

Barrier statistics:
 AA' NZ     : 8.901e+04
 Factor NZ  : 4.145e+05 (roughly 6 MB of memory)
 Factor Ops : 9.037e+07 (less than 1 second per iteration)
 Threads    : 36

                  Objective                Residual
Iter       Primal          Dual         Primal    Dual     Compl     Time
   0   6.05263602e+05 -5.95823848e+07  4.98e+00 4.23e+02  2.32e+04     0s
   1   6.22952868e+04 -1.47481417e+07  5.12e-01 1.38e-10  2.92e+03     0s
   2   2.08019099e+04 -1.01519509e+07  1.36e-01 1.22e-10  1.61e+03     0s
   3   7.78848406e+03 -5.51008189e+05  1.08e-03 6.98e-11  7.94e+01     0s
   4   4.88426431e+03 -3.06974883e+04  4.49e-13 2.77e-11  5.04e+00     0s
   5   8.54921966e+02 -5.41216687e+03  4.63e-13 5.91e-12  8.88e-01     0s
   6   5.20925713e+02 -2.33293964e+03  3.67e-13 2.27e-12  4.04e-01     0s
   7   2.92979844e+02 -6.29963574e+02  1.10e-13 1.82e-12  1.31e-01     0s
   8   1.35300878e+02 -1.41293801e+02  5.92e-14 1.82e-12  3.92e-02     0s
   9   7.97062461e+01 -3.92412261e+01  1.06e-13 1.82e-12  1.69e-02     0s
  10   4.83737287e+01  7.77667042e+00  4.25e-13 3.64e-12  5.75e-03     0s
  11   3.60187670e+01  2.57249995e+01  6.90e-13 3.64e-12  1.46e-03     0s
  12   3.26882228e+01  2.90173861e+01  3.32e-12 1.82e-12  5.20e-04     0s
  13   3.14010733e+01  2.95921824e+01  5.10e-12 3.64e-12  2.56e-04     0s
  14   3.12277967e+01  2.97141290e+01  4.28e-12 9.09e-13  2.15e-04     0s
  15   3.09174121e+01  3.00434648e+01  5.42e-12 1.82e-12  1.24e-04     0s
  16   3.06525096e+01  3.01707260e+01  8.28e-12 1.82e-12  6.83e-05     0s
  17   3.05286858e+01  3.03542424e+01  1.14e-11 1.82e-12  2.47e-05     0s
  18   3.04797438e+01  3.04361818e+01  1.57e-11 1.82e-12  6.17e-06     0s
  19   3.04567566e+01  3.04520525e+01  2.31e-11 3.64e-12  6.67e-07     0s
  20   3.04553504e+01  3.04544378e+01  2.83e-11 3.64e-12  1.29e-07     0s
  21   3.04548761e+01  3.04546551e+01  6.48e-11 1.82e-12  3.13e-08     0s
  22   3.04548655e+01  3.04548553e+01  5.17e-11 3.64e-12  1.45e-09     0s
  23   3.04548653e+01  3.04548653e+01  2.34e-11 1.82e-12  1.46e-12     0s

Barrier solved model in 23 iterations and 0.40 seconds (0.15 work units)
Optimal objective 3.04548653e+01


Root relaxation: objective 3.045487e+01, 399 iterations, 0.36 seconds (0.10 work units)

    Nodes    |    Current Node    |     Objective Bounds      |     Work
 Expl Unexpl |  Obj  Depth IntInf | Incumbent    BestBd   Gap | It/Node Time

     0     0   30.45487    0   13   69.36368   30.45487  56.1%     -    0s
H    0     0                      60.1075791   31.14242  48.2%     -    0s
     0     0   31.14242    0   10   60.10758   31.14242  48.2%     -    0s
H    0     0                      56.7200986   31.14242  45.1%     -    0s
H    0     0                      51.5387870   31.15373  39.6%     -    0s
     0     0   31.15373    0   10   51.53879   31.15373  39.6%     -    0s
     0     0   31.43840    0   12   51.53879   31.43840  39.0%     -    0s
     0     0   31.69856    0    9   51.53879   31.69856  38.5%     -    0s
     0     0   31.81515    0   11   51.53879   31.81515  38.3%     -    0s
     0     0   31.82272    0   11   51.53879   31.82272  38.3%     -    0s
     0     0   31.93871    0   11   51.53879   31.93871  38.0%     -    0s
     0     0   32.57721    0   13   51.53879   32.57721  36.8%     -    0s
H    0     0                      48.4937304   32.57721  32.8%     -    0s
     0     0   33.31623    0   11   48.49373   33.31623  31.3%     -    0s
     0     0   33.66112    0   11   48.49373   33.66112  30.6%     -    0s
     0     0   33.92119    0   11   48.49373   33.92119  30.1%     -    0s
H    0     0                      46.5670103   33.92119  27.2%     -    1s
     0     2   33.92119    0   10   46.56701   33.92119  27.2%     -    1s

Cutting planes:
  Gomory: 5
  Implied bound: 17
  MIR: 106
  Relax-and-lift: 13

Explored 1205 nodes (74957 simplex iterations) in 4.70 seconds (4.98 work units)
Thread count was 36 (of 36 available processors)

Solution count 6: 46.567 48.4937 51.5388 ... 69.3637

Optimal solution found (tolerance 1.00e-02)
Best objective 4.656701026584e+01, best bound 4.656701026584e+01, gap 0.0000%

Gurobi 9.5.0 (linux64) logging started Fri Dec  8 15:19:43 2023

Set parameter LogFile to value "/lustre1/scratch/348/vsc34888/JointResearch/05.Models/06.Benchmarking/F.Representative_days_based_on_Line_Benefit_NN_OC_fy_1/RTS24_mod1_ByStages_nc20/openStarNet_RTS24_mod1_ByStages_nc20.log"
Set parameter Method to value 2
Set parameter MIPFocus to value 1
Set parameter Presolve to value 2
Set parameter RINS to value 100
Set parameter MIPGap to value 0.01
Set parameter Threads to value 36
Set parameter TimeLimit to value 259200
Set parameter IterationLimit to value 760000000
No parameters matching 'relax_integrality' found
Gurobi Optimizer version 9.5.0 build v9.5.0rc5 (linux64)
Thread count: 36 physical cores, 36 logical processors, using up to 36 threads
Optimize a model with 7458 rows, 5038 columns and 18556 nonzeros
Model fingerprint: 0x5105e2ea
Coefficient statistics:
  Matrix range     [8e-03, 2e+03]
  Objective range  [1e+00, 1e+00]
  Bounds range     [6e-05, 3e+00]
  RHS range        [6e-05, 2e+01]
Presolve removed 6207 rows and 2822 columns
Presolve time: 0.01s
Presolved: 1251 rows, 2254 columns, 5318 nonzeros

Ordering time: 0.00s

Barrier statistics:
 AA' NZ     : 2.719e+03
 Factor NZ  : 9.896e+03 (roughly 1 MB of memory)
 Factor Ops : 1.176e+05 (less than 1 second per iteration)
 Threads    : 1

                  Objective                Residual
Iter       Primal          Dual         Primal    Dual     Compl     Time
   0   7.68255025e+05 -6.04873688e+07  4.88e+00 1.94e+03  8.39e+04     0s
   1   7.31945095e+04 -3.15120553e+07  3.72e-01 1.04e-10  1.20e+04     0s
   2   3.83591731e+04 -5.56848666e+06  1.22e-01 1.07e-10  1.90e+03     0s
   3   2.20696466e+04 -8.46100612e+05  4.62e-03 9.46e-11  2.35e+02     0s
   4   1.34249593e+04 -5.52656968e+04  2.85e-05 5.09e-11  1.82e+01     0s
   5   3.08629595e+03 -1.18408022e+04  5.49e-07 9.88e-12  3.95e+00     0s
   6   6.89033317e+02 -2.99721830e+03  3.54e-08 7.28e-12  9.75e-01     0s
   7   3.28573363e+02 -1.34883244e+03  1.92e-09 1.46e-11  4.44e-01     0s
   8   2.08024968e+02 -4.37291558e+02  5.10e-10 3.64e-12  1.71e-01     0s
   9   1.07586160e+02 -1.16457936e+02  6.63e-11 7.28e-12  5.92e-02     0s
  10   6.24278774e+01  1.52390671e+01  6.44e-12 1.46e-11  1.25e-02     0s
  11   5.09565027e+01  4.20557218e+01  1.53e-12 3.64e-12  2.35e-03     0s
  12   4.76317835e+01  4.50119807e+01  3.85e-13 3.64e-12  6.93e-04     0s
  13   4.67397622e+01  4.55737905e+01  1.07e-12 1.46e-11  3.08e-04     0s
  14   4.65847941e+01  4.64682183e+01  5.89e-13 2.91e-11  3.08e-05     0s
  15   4.65707748e+01  4.65469736e+01  7.78e-12 7.28e-12  6.29e-06     0s
  16   4.65671018e+01  4.65658954e+01  1.86e-11 1.46e-11  3.19e-07     0s
  17   4.65670118e+01  4.65670073e+01  9.61e-12 7.28e-12  1.19e-09     0s
  18   4.65670103e+01  4.65670103e+01  5.85e-12 1.46e-11  1.19e-12     0s
  19   4.65670103e+01  4.65670103e+01  1.22e-11 1.46e-11  2.86e-17     0s

Barrier solved model in 19 iterations and 0.03 seconds (0.02 work units)
Optimal objective 4.65670103e+01

Crossover log...

     277 DPushes remaining with DInf 0.0000000e+00                 0s
       0 DPushes remaining with DInf 0.0000000e+00                 0s

      70 PPushes remaining with PInf 0.0000000e+00                 0s
       0 PPushes remaining with PInf 0.0000000e+00                 0s

  Push phase complete: Pinf 0.0000000e+00, Dinf 6.6709060e-13      0s

Iteration    Objective       Primal Inf.    Dual Inf.      Time
      77    4.6567010e+01   0.000000e+00   0.000000e+00      0s

Use crossover to convert LP symmetric solution to basic solution...
Crossover log...

      56 PPushes remaining with PInf 0.0000000e+00                 0s
       0 PPushes remaining with PInf 0.0000000e+00                 0s

  Push phase complete: Pinf 0.0000000e+00, Dinf 4.6567729e-13      0s

Iteration    Objective       Primal Inf.    Dual Inf.      Time
     136    4.6567010e+01   0.000000e+00   0.000000e+00      0s

Solved in 136 iterations and 0.04 seconds (0.03 work units)
Optimal objective  4.656701027e+01

Gurobi 9.5.0 (linux64) logging started Fri Dec  8 20:31:11 2023

Set parameter LogFile to value "/lustre1/scratch/348/vsc34888/JointResearch/05.Models/06.Benchmarking/F.Representative_days_based_on_Line_Benefit_NN_OC_fy_1/RTS24_mod1_ByStages_nc20/openStarNet_RTS24_mod1_ByStages_nc20.log"
Set parameter Method to value 2
Set parameter MIPFocus to value 1
Set parameter Presolve to value 2
Set parameter RINS to value 100
Set parameter MIPGap to value 0.01
Set parameter Threads to value 36
Set parameter TimeLimit to value 259200
Set parameter IterationLimit to value 760000000
Gurobi Optimizer version 9.5.0 build v9.5.0rc5 (linux64)
Thread count: 36 physical cores, 36 logical processors, using up to 36 threads
Optimize a model with 7458 rows, 5053 columns and 20329 nonzeros
Model fingerprint: 0xf105a8b4
Variable types: 5032 continuous, 21 integer (21 binary)
Coefficient statistics:
  Matrix range     [1e-03, 2e+03]
  Objective range  [1e+00, 1e+00]
  Bounds range     [2e-04, 3e+00]
  RHS range        [2e-04, 3e+00]
Presolve removed 4446 rows and 2565 columns
Presolve time: 0.02s
Presolved: 3012 rows, 2488 columns, 10872 nonzeros
Variable types: 2467 continuous, 21 integer (21 binary)
Found heuristic solution: objective 61.1434967
Root relaxation presolve removed 4 rows and 4 columns
Root relaxation presolved: 3008 rows, 2484 columns, 10864 nonzeros

Root barrier log...

Ordering time: 0.04s

Barrier statistics:
 AA' NZ     : 8.901e+04
 Factor NZ  : 4.102e+05 (roughly 6 MB of memory)
 Factor Ops : 8.830e+07 (less than 1 second per iteration)
 Threads    : 36

                  Objective                Residual
Iter       Primal          Dual         Primal    Dual     Compl     Time
   0   6.18891668e+05 -4.06144256e+07  5.23e+00 5.71e+02  1.63e+04     0s
   1   6.64217780e+04 -1.04241807e+07  5.85e-01 2.36e-10  2.14e+03     0s
   2   1.99262629e+04 -7.45012749e+06  1.52e-01 4.29e-10  1.20e+03     0s
   3   6.19106429e+03 -5.05500492e+05  4.14e-03 1.76e-10  7.35e+01     0s
   4   3.49968310e+03 -2.91010860e+04  3.53e-13 8.08e-12  4.63e+00     0s
   5   7.90058581e+02 -4.27144883e+03  3.21e-13 2.73e-12  7.19e-01     0s
   6   3.94243481e+02 -1.19285054e+03  2.50e-13 1.82e-12  2.26e-01     0s
   7   2.36177273e+02 -4.56886263e+02  1.30e-13 1.82e-12  9.85e-02     0s
   8   8.47649819e+01 -1.06076847e+02  1.06e-13 1.82e-12  2.71e-02     0s
   9   5.14811272e+01 -1.23687422e+01  8.71e-13 1.82e-12  9.08e-03     0s
  10   4.45180144e+01  1.69634545e+01  4.36e-13 1.82e-12  3.92e-03     0s
  11   3.74286702e+01  2.99949774e+01  2.20e-12 1.82e-12  1.06e-03     0s
  12   3.60264154e+01  3.13146362e+01  4.30e-12 3.64e-12  6.70e-04     0s
  13   3.45244461e+01  3.16949844e+01  4.73e-12 3.64e-12  4.02e-04     0s
  14   3.35784335e+01  3.24493974e+01  1.06e-11 1.82e-12  1.60e-04     0s
  15   3.30787769e+01  3.27400314e+01  5.68e-12 1.82e-12  4.82e-05     0s
  16   3.29705359e+01  3.27864581e+01  5.09e-11 9.09e-13  2.62e-05     0s
  17   3.28894572e+01  3.28679969e+01  1.07e-11 1.82e-12  3.05e-06     0s
  18   3.28807688e+01  3.28789053e+01  1.23e-10 1.82e-12  2.65e-07     0s
  19   3.28800646e+01  3.28799060e+01  1.86e-10 3.64e-12  2.25e-08     0s
  20   3.28800295e+01  3.28800137e+01  1.17e-10 1.82e-12  2.25e-09     0s
  21   3.28800285e+01  3.28800283e+01  7.51e-11 1.82e-12  2.89e-11     0s
  22   3.28800285e+01  3.28800285e+01  7.61e-11 3.64e-12  1.20e-12     0s

Barrier solved model in 22 iterations and 0.41 seconds (0.14 work units)
Optimal objective 3.28800285e+01


Root relaxation: objective 3.288003e+01, 395 iterations, 0.37 seconds (0.09 work units)

    Nodes    |    Current Node    |     Objective Bounds      |     Work
 Expl Unexpl |  Obj  Depth IntInf | Incumbent    BestBd   Gap | It/Node Time

     0     0   32.88003    0   11   61.14350   32.88003  46.2%     -    0s
H    0     0                      54.0738124   33.18686  38.6%     -    0s
     0     0   33.18686    0    8   54.07381   33.18686  38.6%     -    0s
H    0     0                      52.2265128   33.25647  36.3%     -    0s
     0     0   33.25647    0    9   52.22651   33.25647  36.3%     -    0s
     0     0   33.46349    0    8   52.22651   33.46349  35.9%     -    0s
     0     0   33.54521    0    9   52.22651   33.54521  35.8%     -    0s
H    0     0                      50.4433274   33.54521  33.5%     -    0s
     0     0   33.81683    0    8   50.44333   33.81683  33.0%     -    0s
H    0     0                      48.2729072   34.03540  29.5%     -    0s
     0     0   34.03540    0    7   48.27291   34.03540  29.5%     -    0s
     0     0   35.43840    0    7   48.27291   35.43840  26.6%     -    0s
     0     0   35.62194    0    7   48.27291   35.62194  26.2%     -    0s
     0     0   35.92267    0    7   48.27291   35.92267  25.6%     -    0s
H    0     0                      44.7156194   35.92267  19.7%     -    1s
     0     2   35.92267    0    7   44.71562   35.92267  19.7%     -    1s
H  147   100                      44.7156193   35.92267  19.7%  67.8    2s

Cutting planes:
  Gomory: 1
  Implied bound: 3
  MIR: 20

Explored 1165 nodes (51349 simplex iterations) in 3.59 seconds (3.65 work units)
Thread count was 36 (of 36 available processors)

Solution count 6: 44.7156 48.2729 50.4433 ... 61.1435

Optimal solution found (tolerance 1.00e-02)
Best objective 4.471561934304e+01, best bound 4.471561934304e+01, gap 0.0000%

Gurobi 9.5.0 (linux64) logging started Fri Dec  8 20:31:15 2023

Set parameter LogFile to value "/lustre1/scratch/348/vsc34888/JointResearch/05.Models/06.Benchmarking/F.Representative_days_based_on_Line_Benefit_NN_OC_fy_1/RTS24_mod1_ByStages_nc20/openStarNet_RTS24_mod1_ByStages_nc20.log"
Set parameter Method to value 2
Set parameter MIPFocus to value 1
Set parameter Presolve to value 2
Set parameter RINS to value 100
Set parameter MIPGap to value 0.01
Set parameter Threads to value 36
Set parameter TimeLimit to value 259200
Set parameter IterationLimit to value 760000000
No parameters matching 'relax_integrality' found
Gurobi Optimizer version 9.5.0 build v9.5.0rc5 (linux64)
Thread count: 36 physical cores, 36 logical processors, using up to 36 threads
Optimize a model with 7458 rows, 5032 columns and 18544 nonzeros
Model fingerprint: 0x17c0c541
Coefficient statistics:
  Matrix range     [1e-03, 2e+03]
  Objective range  [1e+00, 1e+00]
  Bounds range     [2e-04, 3e+00]
  RHS range        [2e-04, 1e+01]
Presolve removed 6160 rows and 2777 columns
Presolve time: 0.01s
Presolved: 1298 rows, 2295 columns, 5872 nonzeros

Ordering time: 0.00s

Barrier statistics:
 AA' NZ     : 3.536e+03
 Factor NZ  : 1.063e+04 (roughly 1 MB of memory)
 Factor Ops : 1.304e+05 (less than 1 second per iteration)
 Threads    : 1

                  Objective                Residual
Iter       Primal          Dual         Primal    Dual     Compl     Time
   0   5.41074375e+05 -3.81756983e+06  5.14e+00 7.36e+02  5.38e+03     0s
   1   5.74542495e+04 -2.03838607e+06  4.46e-01 5.91e-12  7.95e+02     0s
   2   1.31095228e+04 -3.30541527e+05  9.59e-03 6.35e-12  8.95e+01     0s
   3   2.69916560e+03 -2.18262126e+04  1.62e-05 3.18e-12  6.26e+00     0s
   4   4.61261934e+02 -1.80231721e+03  6.72e-08 1.82e-12  5.78e-01     0s
   5   2.25337033e+02 -4.14625272e+02  7.06e-09 9.09e-13  1.63e-01     0s
   6   1.10057659e+02 -1.41216158e+02  2.18e-09 1.36e-12  6.41e-02     0s
   7   5.28397348e+01  2.63165648e+01  1.50e-10 1.82e-12  6.77e-03     0s
   8   4.55734374e+01  4.18676490e+01  9.77e-12 9.09e-13  9.46e-04     0s
   9   4.48981961e+01  4.42480921e+01  1.45e-12 1.82e-12  1.66e-04     0s
  10   4.47770147e+01  4.45836113e+01  5.17e-13 1.82e-12  4.94e-05     0s
  11   4.47229608e+01  4.46962717e+01  2.14e-13 1.82e-12  6.81e-06     0s
  12   4.47170748e+01  4.47151270e+01  1.54e-13 1.82e-12  4.97e-07     0s
  13   4.47156209e+01  4.47156189e+01  3.26e-13 9.09e-13  5.01e-10     0s
  14   4.47156194e+01  4.47156194e+01  2.06e-13 1.36e-12  5.01e-13     0s

Barrier solved model in 14 iterations and 0.03 seconds (0.02 work units)
Optimal objective 4.47156194e+01

Crossover log...

     276 DPushes remaining with DInf 0.0000000e+00                 0s

      79 PPushes remaining with PInf 0.0000000e+00                 0s
       0 PPushes remaining with PInf 0.0000000e+00                 0s

  Push phase complete: Pinf 0.0000000e+00, Dinf 2.6596761e-13      0s

Iteration    Objective       Primal Inf.    Dual Inf.      Time
      82    4.4715619e+01   0.000000e+00   0.000000e+00      0s

Use crossover to convert LP symmetric solution to basic solution...
Crossover log...

      67 PPushes remaining with PInf 0.0000000e+00                 0s
       0 PPushes remaining with PInf 0.0000000e+00                 0s

  Push phase complete: Pinf 0.0000000e+00, Dinf 4.3752079e-13      0s

Iteration    Objective       Primal Inf.    Dual Inf.      Time
     152    4.4715619e+01   0.000000e+00   0.000000e+00      0s

Solved in 152 iterations and 0.04 seconds (0.03 work units)
Optimal objective  4.471561944e+01
